# For lammps simulation
units               real
atom_style          awsemmd
boundary            p p p
newton              on  #yes

#   ---         Variables for debye huckel potential        ---     #
#   parallel replica temperatures
variable            T   equal   300     
variable v1 equal random(1,1000,6178)
variable            random      equal   round(v_v1)

variable            salt        equal   150.0       # Salt concentration [mM]
variable            ldby        equal   7.853761    # debye screen length, depend on both T and salt, determined from known formula given that dielec=78
variable            ldbi        equal   1.0/v_ldby  # debye screen length
variable            cut_coul    equal   v_ldby*4.0  # coulombic cutoff is four times the debye length. 
                                                    # This is consistent with the DNA model
variable            cut_lj      equal   15.0
variable            cut_lj_pair equal   20.0
variable            dielec      equal   78.0

read_data           /nfs/pool002/users/smliu/tetra-nucl-msm/lammps-structures/multi_nucleo-v1.0-172-4-seq-1zbb/single_nucleo/post_processing/data.prot_dna 
read_dump           ../../DUMP_initial.dcd 0 x y z box no format molfile dcd /home/xclin/lib/vmd.old/plugins/LINUXAMD64/molfile

variable            inputdir    string "/nfs/pool002/users/smliu/tetra-nucl-msm/lammps-structures/multi_nucleo-v1.0-172-4-seq-1zbb/single_nucleo/post_processing"
# Specify the different interaction styles
bond_style          hybrid list ${inputdir}/dna_list_files/in00_bond.list list/ca ${inputdir}/prot_list_files/ca_bond_list.txt
angle_style         hybrid stacking/3spn2   list    ${inputdir}/dna_list_files/in00_angl.list list/ca ${inputdir}/prot_list_files/ca_angle_list.txt
dihedral_style      hybrid list ${inputdir}/dna_list_files/in00_dihe.list list/ca ${inputdir}/prot_list_files/ca_dihed_list.txt


pair_style          hybrid/overlay 3spn2 bdna/curv ${T} ${salt} 18.0 50.0 list ${inputdir}/prot_list_files/ca_pair_list.txt ${cut_lj_pair} nocheck lj/cut/coul/debye ${ldbi} 10.0 ${cut_coul}
pair_coeff          * * list

dielectric          ${dielec} 

# read in pair interaction
include           /nobackup1/binz/chromatin_fiber_CG/tetra/commons/post_processing/forcefield_pp_interaction/proteinDna_pairCoeff.in
## shift the cutoff energy
pair_modify         shift yes

include           ${inputdir}/forcefield/bonded_ff.txt

#   ---         group definitions       --- #
include             ${inputdir}/groupsDefinition/group_rigid.txt
group nonRigidBody  subtract all nucl1 nucl2 nucl3 nucl4
#group2ndx           groups.ndx  

# ---     from AWSEM simulation   ---
neighbor            5      bin 
# exclude interactions
neigh_modify exclude group nucl1 nucl1 check no
neigh_modify exclude group nucl2 nucl2 check no
neigh_modify exclude group nucl3 nucl3 check no
neigh_modify exclude group nucl4 nucl4 check no
neigh_modify        check  yes     one 5000    # this avoids the error "boost neigh_modify one"
atom_modify         sort 0 0.0
#special_bonds       fene
special_bonds       lj 0.0 0.0 0.0
delete_bonds nucl1 multi remove
delete_bonds nucl2 multi remove
delete_bonds nucl3 multi remove
delete_bonds nucl4 multi remove


#####################################################
timestep            10.0
thermo              10000
thermo_style        multi
thermo_modify flush yes

velocity            all create ${T} ${random} rot yes mom yes dist gaussian

minimize        1.0e-4 1.0e-6 100 1000
reset_timestep 0

fix                 pl all plumed plumedfile plumed.txt outfile plumed.out

dump                1 all dcd 1000 DUMP_FILE.dcd
dump_modify         1 sort id

fix                 rigidBody core rigid/nvt group 4 nucl1 nucl2 nucl3 nucl4 temp ${T} ${T} 1000.0 
fix                 myfix nonRigidBody nvt temp ${T} ${T} 1000.0

balance 1.1 shift xyz 10 1.0
run 500000

